sat
(= |goto_symex::&92;guard#1| true)
(= |goto_symex::&92;guard#2| false)
(= |memory_model::choice_rf_1_32_0_9_T_0| false)
(= |memory_model::choice_rf_1_32_2_38_T_1| true)
(= |memory_model::choice_rf_2_37_0_9_T_2| true)
(= |memory_model::choice_rf_2_37_1_33_T_3| false)
(= |memory_model::choice_rf_0_39_0_7_T_4| false)
(= |memory_model::choice_rf_0_39_0_35_T_5| true)
(= |memory_model::choice_rf_0_48_0_17_F_6| false)
(= |memory_model::choice_rf_0_48_1_29_F_7| false)
(= |memory_model::choice_rf_0_48_2_19_F_8| false)
(= |memory_model::choice_rf_0_48_2_34_F_9| true)
(= |memory_model::choice_rf_1_20_0_17_F_10| false)
(= |memory_model::choice_rf_1_20_0_57_F_11| false)
(= |memory_model::choice_rf_1_20_2_19_F_12| true)
(= |memory_model::choice_rf_1_20_2_34_F_13| false)
(= |memory_model::choice_rf_2_10_0_17_F_14| true)
(= |memory_model::choice_rf_2_10_0_57_F_15| false)
(= |memory_model::choice_rf_2_10_1_29_F_16| false)
(= |memory_model::choice_rf_2_24_0_17_F_17| false)
(= |memory_model::choice_rf_2_24_0_57_F_18| false)
(= |memory_model::choice_rf_2_24_1_29_F_19| true)
(= |memory_model::choice_rf_2_24_2_19_F_20| false)
(= |memory_model::choice_rf_0_43_0_10_F_21| false)
(= |memory_model::choice_rf_0_43_1_31_F_22| true)
(= |memory_model::choice_rf_0_43_2_36_F_23| false)
(= |memory_model::choice_rf_1_30_0_10_F_24| false)
(= |memory_model::choice_rf_1_30_2_36_F_25| true)
(= |memory_model::choice_rf_2_35_0_10_F_26| true)
(= |memory_model::choice_rf_2_35_1_31_F_27| false)
(= |memory_model::choice_rf_0_60_0_11_F_28| false)
(= |memory_model::choice_rf_0_60_2_3_F_29| true)
(= |memory_model::choice_rf_0_59_0_12_F_30| false)
(= |memory_model::choice_rf_0_59_2_15_F_31| true)
(= |memory_model::choice_rf_0_45_0_13_F_32| false)
(= |memory_model::choice_rf_0_45_0_44_F_33| true)
(= |memory_model::choice_rf_0_58_0_14_F_34| false)
(= |memory_model::choice_rf_0_63_0_14_F_35| false)
(= |memory_model::choice_rf_0_63_0_62_F_36| true)
(= |memory_model::choice_rf_0_64_0_14_F_37| false)
(= |memory_model::choice_rf_0_64_0_62_F_38| true)
(= |memory_model::choice_rf_0_51_0_20_F_39| true)
(= |memory_model::choice_rf_1_5_0_20_F_40| true)
(= |memory_model::choice_rf_1_5_0_54_F_41| false)
(= |memory_model::choice_rf_1_2_0_21_F_42| true)
(= |memory_model::choice_rf_1_23_0_21_F_43| false)
(= |memory_model::choice_rf_1_23_1_8_F_44| true)
(= |memory_model::choice_rf_1_1_0_22_F_45| true)
(= |memory_model::choice_rf_1_1_2_12_F_46| false)
(= |memory_model::choice_rf_1_1_2_31_F_47| false)
(= |memory_model::choice_rf_2_7_0_22_F_48| true)
(= |memory_model::choice_rf_2_28_0_22_F_49| false)
(= |memory_model::choice_rf_2_28_2_12_F_50| true)
(= |memory_model::choice_rf_0_47_0_23_F_51| false)
(= |memory_model::choice_rf_0_47_1_11_F_52| true)
(= |memory_model::choice_rf_1_4_0_23_F_53| false)
(= |memory_model::choice_rf_1_4_0_53_F_54| false)
(= |memory_model::choice_rf_1_3_0_24_F_55| false)
(= |memory_model::choice_rf_1_19_0_24_F_56| false)
(= |memory_model::choice_rf_1_19_1_10_F_57| true)
(= |memory_model::choice_rf_1_0_0_25_F_58| false)
(= |memory_model::choice_rf_1_0_2_11_F_59| false)
(= |memory_model::choice_rf_1_0_2_30_F_60| false)
(= |memory_model::choice_rf_2_6_0_25_F_61| false)
(= |memory_model::choice_rf_2_6_1_9_F_62| true)
(= |memory_model::choice_rf_2_27_0_25_F_63| false)
(= |memory_model::choice_rf_2_27_1_9_F_64| false)
(= |memory_model::choice_rf_2_27_2_11_F_65| true)
(= |memory_model::choice_rf_0_50_0_28_F_66| false)
(= |memory_model::choice_rf_0_50_1_14_F_67| false)
(= |memory_model::choice_rf_0_50_2_14_F_68| true)
(= |memory_model::choice_rf_1_7_0_28_F_69| true)
(= |memory_model::choice_rf_1_7_2_14_F_70| false)
(= |memory_model::choice_rf_1_22_0_28_F_71| false)
(= |memory_model::choice_rf_1_22_1_14_F_72| false)
(= |memory_model::choice_rf_1_22_2_14_F_73| true)
(= |memory_model::choice_rf_2_5_0_28_F_74| false)
(= |memory_model::choice_rf_2_5_1_14_F_75| true)
(= |memory_model::choice_rf_2_26_0_28_F_76| false)
(= |memory_model::choice_rf_2_26_1_14_F_77| false)
(= |memory_model::choice_rf_2_26_2_14_F_78| true)
(= |memory_model::choice_rf_0_52_0_29_F_79| false)
(= |memory_model::choice_rf_0_52_1_12_F_80| false)
(= |memory_model::choice_rf_0_52_1_27_F_81| false)
(= |memory_model::choice_rf_0_52_2_21_F_82| false)
(= |memory_model::choice_rf_0_52_2_32_F_83| true)
(= |memory_model::choice_rf_1_6_0_29_F_84| true)
(= |memory_model::choice_rf_1_6_0_55_F_85| false)
(= |memory_model::choice_rf_1_6_2_21_F_86| false)
(= |memory_model::choice_rf_1_6_2_32_F_87| false)
(= |memory_model::choice_rf_1_24_0_29_F_88| false)
(= |memory_model::choice_rf_1_24_0_55_F_89| false)
(= |memory_model::choice_rf_1_24_1_12_F_90| false)
(= |memory_model::choice_rf_1_24_2_21_F_91| true)
(= |memory_model::choice_rf_1_24_2_32_F_92| false)
(= |memory_model::choice_rf_2_8_0_29_F_93| false)
(= |memory_model::choice_rf_2_8_0_55_F_94| false)
(= |memory_model::choice_rf_2_8_1_12_F_95| true)
(= |memory_model::choice_rf_2_8_1_27_F_96| false)
(= |memory_model::choice_rf_2_29_0_29_F_97| false)
(= |memory_model::choice_rf_2_29_0_55_F_98| false)
(= |memory_model::choice_rf_2_29_1_12_F_99| false)
(= |memory_model::choice_rf_2_29_1_27_F_100| true)
(= |memory_model::choice_rf_2_29_2_21_F_101| false)
(= |memory_model::choice_rf_0_46_0_30_F_102| false)
(= |memory_model::choice_rf_0_46_1_15_F_103| false)
(= |memory_model::choice_rf_0_46_2_13_F_104| true)
(= |memory_model::choice_rf_1_18_0_30_F_105| false)
(= |memory_model::choice_rf_1_18_1_15_F_106| false)
(= |memory_model::choice_rf_1_18_2_13_F_107| true)
(= |memory_model::choice_rf_2_4_0_30_F_108| false)
(= |memory_model::choice_rf_2_4_1_15_F_109| true)
(= |memory_model::choice_rf_2_23_0_30_F_110| false)
(= |memory_model::choice_rf_2_23_1_15_F_111| false)
(= |memory_model::choice_rf_2_23_2_13_F_112| true)
(= |memory_model::choice_rf_0_49_0_31_F_113| false)
(= |memory_model::choice_rf_0_49_1_13_F_114| false)
(= |memory_model::choice_rf_0_49_1_28_F_115| false)
(= |memory_model::choice_rf_0_49_2_18_F_116| false)
(= |memory_model::choice_rf_0_49_2_33_F_117| true)
(= |memory_model::choice_rf_1_21_0_31_F_118| false)
(= |memory_model::choice_rf_1_21_0_56_F_119| false)
(= |memory_model::choice_rf_1_21_1_13_F_120| false)
(= |memory_model::choice_rf_1_21_2_18_F_121| true)
(= |memory_model::choice_rf_1_21_2_33_F_122| false)
(= |memory_model::choice_rf_2_9_0_31_F_123| false)
(= |memory_model::choice_rf_2_9_0_56_F_124| false)
(= |memory_model::choice_rf_2_9_1_13_F_125| true)
(= |memory_model::choice_rf_2_9_1_28_F_126| false)
(= |memory_model::choice_rf_2_25_0_31_F_127| false)
(= |memory_model::choice_rf_2_25_0_56_F_128| false)
(= |memory_model::choice_rf_2_25_1_13_F_129| false)
(= |memory_model::choice_rf_2_25_1_28_F_130| true)
(= |memory_model::choice_rf_2_25_2_18_F_131| false)
(= |memory_model::choice_rf_0_61_0_32_F_132| false)
(= |memory_model::choice_rf_0_61_1_17_F_133| false)
(= |memory_model::choice_rf_0_61_2_0_F_134| true)
(= |memory_model::choice_rf_1_16_0_32_F_135| false)
(= |memory_model::choice_rf_1_16_2_0_F_136| false)
(= |memory_model::choice_rf_2_2_0_33_F_137| false)
(= |memory_model::choice_rf_2_2_2_1_F_138| true)
(= |memory_model::choice_ws-ext_0_9_1_33_T_139| true)
(= |memory_model::choice_ws-ext_0_9_2_38_T_140| true)
(= |memory_model::choice_ws-ext_1_33_2_38_T_141| false)
(= |memory_model::choice_ws-ext_0_17_1_29_F_142| true)
(= |memory_model::choice_ws-ext_0_17_2_19_F_143| true)
(= |memory_model::choice_ws-ext_0_17_2_34_F_144| true)
(= |memory_model::choice_ws-ext_0_57_1_29_F_145| false)
(= |memory_model::choice_ws-ext_0_57_2_19_F_146| false)
(= |memory_model::choice_ws-ext_0_57_2_34_F_147| false)
(= |memory_model::choice_ws-ext_1_29_2_19_F_148| false)
(= |memory_model::choice_ws-ext_1_29_2_34_F_149| true)
(= |memory_model::choice_ws-ext_0_10_1_31_F_150| true)
(= |memory_model::choice_ws-ext_0_10_2_36_F_151| true)
(= |memory_model::choice_ws-ext_1_31_2_36_F_152| false)
(= |memory_model::choice_ws-ext_0_11_2_3_F_153| true)
(= |memory_model::choice_ws-ext_0_12_2_15_F_154| true)
(= |memory_model::choice_ws-ext_0_18_2_17_F_155| true)
(= |memory_model::choice_ws-ext_0_19_2_16_F_156| true)
(= |memory_model::choice_ws-ext_0_21_1_8_F_157| true)
(= |memory_model::choice_ws-ext_0_21_1_26_F_158| true)
(= |memory_model::choice_ws-ext_0_22_2_12_F_159| true)
(= |memory_model::choice_ws-ext_0_22_2_31_F_160| true)
(= |memory_model::choice_ws-ext_0_23_1_11_F_161| true)
(= |memory_model::choice_ws-ext_0_53_1_11_F_162| false)
(= |memory_model::choice_ws-ext_0_24_1_10_F_163| true)
(= |memory_model::choice_ws-ext_0_24_1_25_F_164| true)
(= |memory_model::choice_ws-ext_0_25_1_9_F_165| true)
(= |memory_model::choice_ws-ext_0_25_2_11_F_166| true)
(= |memory_model::choice_ws-ext_0_25_2_30_F_167| true)
(= |memory_model::choice_ws-ext_1_9_2_11_F_168| true)
(= |memory_model::choice_ws-ext_1_9_2_30_F_169| true)
(= |memory_model::choice_ws-ext_0_28_1_14_F_170| true)
(= |memory_model::choice_ws-ext_0_28_2_14_F_171| true)
(= |memory_model::choice_ws-ext_1_14_2_14_F_172| true)
(= |memory_model::choice_ws-ext_0_29_1_12_F_173| true)
(= |memory_model::choice_ws-ext_0_29_1_27_F_174| true)
(= |memory_model::choice_ws-ext_0_29_2_21_F_175| true)
(= |memory_model::choice_ws-ext_0_29_2_32_F_176| true)
(= |memory_model::choice_ws-ext_0_55_1_12_F_177| false)
(= |memory_model::choice_ws-ext_0_55_1_27_F_178| false)
(= |memory_model::choice_ws-ext_0_55_2_21_F_179| false)
(= |memory_model::choice_ws-ext_0_55_2_32_F_180| false)
(= |memory_model::choice_ws-ext_1_12_2_21_F_181| true)
(= |memory_model::choice_ws-ext_1_12_2_32_F_182| true)
(= |memory_model::choice_ws-ext_1_27_2_21_F_183| false)
(= |memory_model::choice_ws-ext_1_27_2_32_F_184| true)
(= |memory_model::choice_ws-ext_0_30_1_15_F_185| true)
(= |memory_model::choice_ws-ext_0_30_2_13_F_186| true)
(= |memory_model::choice_ws-ext_1_15_2_13_F_187| true)
(= |memory_model::choice_ws-ext_0_31_1_13_F_188| true)
(= |memory_model::choice_ws-ext_0_31_1_28_F_189| true)
(= |memory_model::choice_ws-ext_0_31_2_18_F_190| true)
(= |memory_model::choice_ws-ext_0_31_2_33_F_191| true)
(= |memory_model::choice_ws-ext_0_56_1_13_F_192| false)
(= |memory_model::choice_ws-ext_0_56_1_28_F_193| false)
(= |memory_model::choice_ws-ext_0_56_2_18_F_194| false)
(= |memory_model::choice_ws-ext_0_56_2_33_F_195| false)
(= |memory_model::choice_ws-ext_1_13_2_18_F_196| true)
(= |memory_model::choice_ws-ext_1_13_2_33_F_197| true)
(= |memory_model::choice_ws-ext_1_28_2_18_F_198| false)
(= |memory_model::choice_ws-ext_1_28_2_33_F_199| true)
(= |memory_model::choice_ws-ext_0_32_1_17_F_200| true)
(= |memory_model::choice_ws-ext_0_32_2_0_F_201| true)
(= |memory_model::choice_ws-ext_1_17_2_0_F_202| true)
(= |memory_model::choice_ws-ext_0_33_2_1_F_203| true)
(= |memory_model::choice_ws-ext_0_15_2_22_F_204| true)
(= |memory_model::choice_ws-ext_0_16_2_20_F_205| true)
(= |main$tmp_guard0#3| #b00000001)
(= |__CPROVER_next_thread_id#3| #b00000000000000000000000000000001)
(= |__unbuffered_cnt#2| #b00000000000000000000000000000010)
(= |x$w_buff0_used#2| #b00000000)
(= |x$r_buff0_thd0#2| #b00000000)
(= |x$w_buff0#2| #b00000000000000000000000000000001)
(= |x$w_buff1_used#2| #b00000000)
(= |x$r_buff1_thd0#2| #b00000000)
(= |x$w_buff1#2| #b00000000000000000000000000000000)
(= |x#2| #b00000000000000000000000000000001)
(= |x#4| #b00000000000000000000000000000001)
(= |x$w_buff0_used#6| #b00000000)
(= |x$w_buff1_used#6| #b00000000)
(= |x$r_buff0_thd0#8| #b00000000)
(= |x$r_buff1_thd0#7| #b00000000)
(= |y#2| #b00000000000000000000000000000010)
(= |__unbuffered_p1_EAX#2| #b00000000000000000000000000000001)
(= |__unbuffered_p1_EBX#2| #b00000000000000000000000000000000)
(= |main$tmp_guard1#2| #b00000000)
(= |main$tmp_guard1#3| #b10000000)
(= |main$tmp_guard1#6| #b00000000)
(= |pthread_create::1::this_thread_id!1@0#0| #b00000000000000000000000000000000)
(= |x$w_buff0#4| #b00000000000000000000000000000000)
(= |x$w_buff0_used#11| #b00000000)
(= |x$r_buff0_thd0#11| #b00000000)
(= |x$r_buff1_thd0#9| #b00000000)
(= |x$r_buff1_thd0#10| #b10000000)
(= |x$r_buff0_thd1#2| #b00000000)
(= |x$r_buff1_thd1#2| #b00000000)
(= |x$r_buff1_thd1#3| #b10000000)
(= |x$r_buff0_thd2#2| #b00000000)
(= |x$r_buff1_thd2#2| #b00000000)
(= |x$r_buff1_thd2#3| #b10000000)
(= |x$r_buff0_thd1#4| #b00000001)
(= |y#4| #b00000000000000000000000000000001)
(= |y#5| #b10000000000000000000000000000000)
(= |x$w_buff0_used#14| #b00000001)
(= |x$r_buff0_thd1#6| #b00000001)
(= |x$w_buff0#7| #b00000000000000000000000000000001)
(= |x$w_buff1_used#10| #b00000000)
(= |x$r_buff1_thd1#5| #b00000000)
(= |x$w_buff1#5| #b00000000000000000000000000000000)
(= |x#6| #b00000000000000000000000000000000)
(= |x#8| #b00000000000000000000000000000001)
(= |x$w_buff0_used#18| #b00000000)
(= |x$w_buff1_used#14| #b00000000)
(= |x$r_buff0_thd1#12| #b00000001)
(= |x$r_buff1_thd1#10| #b00000000)
(= |__unbuffered_cnt#4| #b00000000000000000000000000000001)
(= |__unbuffered_cnt#6| #b00000000000000000000000000000010)
(= |pthread_create::1::this_thread_id!2@0#0| #b00000000000000000000000000000000)
(= |z#3| #b00000000000000000000000000000001)
(= |nondet_symex::nondet2| #b10000000000000000000000000000000)
(= |x#10| #b00000000000000000000000000000000)
(= |x$w_buff0_used#23| #b00000001)
(= |x$r_buff0_thd2#4| #b00000000)
(= |x$w_buff1_used#17| #b00000000)
(= |x$r_buff1_thd2#5| #b00000000)
(= |x$w_buff0#9| #b00000000000000000000000000000001)
(= |x$w_buff1#7| #b00000000000000000000000000000000)
(= |x$w_buff0_used#26| #b00000000)
(= |x$r_buff0_thd2#7| #b00000000)
(= |x$w_buff0#12| #b00000000000000000000000000000001)
(= |x$w_buff1_used#20| #b00000000)
(= |x$r_buff1_thd2#8| #b00000000)
(= |x$w_buff1#10| #b00000000000000000000000000000000)
(= |x#14| #b00000000000000000000000000000001)
(= |__unbuffered_cnt#8| #b00000000000000000000000000000000)
(= |__CPROVER_threads_exited#1$wclk$8| #b00001001)
(= |__CPROVER_threads_exited#2$rclk$8| #b11100001)
(= |__CPROVER_threads_exited#5$wclk$8| #b11011000)
(= |__CPROVER_threads_exited#4$rclk$8| #b10111110)
(= |__CPROVER_threads_exited#3$wclk$8| #b11111101)
(= |x#9$wclk$8| #b10101010)
(= |x#2$rclk$8| #b10111011)
(= |x#13$wclk$8| #b10101001)
(= |x#16$wclk$8| #b10110010)
(= |x#1$wclk$8| #b00010001)
(= |x#6$rclk$8| #b10101010)
(= |x#5$wclk$8| #b10111011)
(= |x#10$rclk$8| #b10101001)
(= |x#14$rclk$8| #b10110010)
(= |__unbuffered_cnt#7$wclk$8| #b10111000)
(= |__unbuffered_cnt#2$rclk$8| #b10111001)
(= |__unbuffered_cnt#10$wclk$8| #b10110011)
(= |__unbuffered_cnt#1$wclk$8| #b00001010)
(= |__unbuffered_cnt#4$rclk$8| #b10111000)
(= |__unbuffered_cnt#8$rclk$8| #b10110011)
(= |__unbuffered_p1_EAX#4$wclk$8| #b01110100)
(= |__unbuffered_p1_EAX#2$rclk$8| #b11111000)
(= |__unbuffered_p1_EBX#4$wclk$8| #b10101001)
(= |__unbuffered_p1_EBX#2$rclk$8| #b11111000)
(= |main$tmp_guard1#5| #b00000000)
(= |x$r_buff0_thd0#1$wclk$8| #b00010100)
(= |x$r_buff0_thd0#11$rclk$8| #b00110110)
(= |x$r_buff0_thd0#10$wclk$8| #b10111011)
(= |x$r_buff0_thd1#1$wclk$8| #b00010101)
(= |x$r_buff0_thd1#2$rclk$8| #b00110110)
(= |x$r_buff0_thd1#6$rclk$8| #b10101010)
(= |x$r_buff0_thd2#1$wclk$8| #b00010110)
(= |x$r_buff0_thd2#2$rclk$8| #b00110110)
(= |x$r_buff0_thd2#6$wclk$8| #b10101001)
(= |x$r_buff0_thd2#9$wclk$8| #b10110010)
(= |x$r_buff0_thd2#4$rclk$8| #b10101001)
(= |x$r_buff0_thd2#7$rclk$8| #b10110010)
(= |x$r_buff1_thd0#11$wclk$8| #b00110110)
(= |x$r_buff1_thd0#2$rclk$8| #b10111011)
(= |x$r_buff1_thd0#1$wclk$8| #b00010111)
(= |x$r_buff1_thd0#10$rclk$8| #b00110110)
(= |x$r_buff1_thd0#8$wclk$8| #b10111011)
(= |x$r_buff1_thd1#1$wclk$8| #b00011000)
(= |x$r_buff1_thd1#3$rclk$8| #b00110110)
(= |x$r_buff1_thd1#5$rclk$8| #b10101010)
(= |x$r_buff1_thd2#1$wclk$8| #b00011001)
(= |x$r_buff1_thd2#3$rclk$8| #b00110110)
(= |x$r_buff1_thd2#7$wclk$8| #b10101001)
(= |x$r_buff1_thd2#10$wclk$8| #b10110010)
(= |x$r_buff1_thd2#5$rclk$8| #b10101001)
(= |x$r_buff1_thd2#4$wclk$8| #b00110110)
(= |x$r_buff1_thd2#8$rclk$8| #b10110010)
(= |x$w_buff0#6$wclk$8| #b00110110)
(= |x$w_buff0#2$rclk$8| #b10111011)
(= |x$w_buff0#11$wclk$8| #b10101001)
(= |x$w_buff0#1$wclk$8| #b00011100)
(= |x$w_buff0#4$rclk$8| #b00110110)
(= |x$w_buff0#7$rclk$8| #b10101010)
(= |x$w_buff0#9$rclk$8| #b10101001)
(= |x$w_buff0#12$rclk$8| #b10110010)
(= |x$w_buff0_used#13$wclk$8| #b00110110)
(= |x$w_buff0_used#2$rclk$8| #b10111011)
(= |x$w_buff0_used#22$wclk$8| #b10101010)
(= |x$w_buff0_used#25$wclk$8| #b10101001)
(= |x$w_buff0_used#28$wclk$8| #b10110010)
(= |x$w_buff0_used#1$wclk$8| #b00011101)
(= |x$w_buff0_used#11$rclk$8| #b00110110)
(= |x$w_buff0_used#10$wclk$8| #b10111011)
(= |x$w_buff0_used#14$rclk$8| #b10101010)
(= |x$w_buff0_used#23$rclk$8| #b10101001)
(= |x$w_buff0_used#26$rclk$8| #b10110010)
(= |x$w_buff1#4$wclk$8| #b00110110)
(= |x$w_buff1#2$rclk$8| #b10111011)
(= |x$w_buff1#9$wclk$8| #b10101001)
(= |x$w_buff1#1$wclk$8| #b00011110)
(= |x$w_buff1#5$rclk$8| #b10101010)
(= |x$w_buff1#7$rclk$8| #b10101001)
(= |x$w_buff1#10$rclk$8| #b10110010)
(= |x$w_buff1_used#9$wclk$8| #b00110110)
(= |x$w_buff1_used#2$rclk$8| #b10111011)
(= |x$w_buff1_used#16$wclk$8| #b10101010)
(= |x$w_buff1_used#19$wclk$8| #b10101001)
(= |x$w_buff1_used#22$wclk$8| #b10110010)
(= |x$w_buff1_used#1$wclk$8| #b00011111)
(= |x$w_buff1_used#10$rclk$8| #b10101010)
(= |x$w_buff1_used#8$wclk$8| #b10111011)
(= |x$w_buff1_used#17$rclk$8| #b10101001)
(= |x$w_buff1_used#20$rclk$8| #b10110010)
(= |y#6$wclk$8| #b01001111)
(= |y#2$rclk$8| #b11111000)
(= |y#7$wclk$8| #b01100011)
(= |y#1$wclk$8| #b00100010)
(= |y#5$rclk$8| #b01001111)
(= |z#1$wclk$8| #b00100011)
(= |z#3$rclk$8| #b01110100)
(= |__unbuffered_p1_EAX#1$wclk$8| #b00001011)
(= |__unbuffered_p1_EBX#1$wclk$8| #b00001100)
(= |x$flush_delayed#1$wclk$8| #b00010010)
(= |x$flush_delayed#3$wclk$8| #b10101001)
(= |x$mem_tmp#1$wclk$8| #b00010011)
(= |x$mem_tmp#2$wclk$8| #b10101001)
(= |x$r_buff0_thd1#5$wclk$8| #b00110110)
(= |x$r_buff0_thd1#14$wclk$8| #b10101010)
(= |x$r_buff1_thd1#4$wclk$8| #b00110110)
(= |x$r_buff1_thd1#11$wclk$8| #b10101010)
(= |z#2$wclk$8| #b01110010)
(= |weak$$choice0#1$wclk$8| #b00001111)
(= |weak$$choice0#2$wclk$8| #b10101001)
(= |weak$$choice2#1$wclk$8| #b00010000)
(= |weak$$choice2#2$wclk$8| #b10101001)
(= t1$37$spwnclk$8 #b00101011)
(= t1$42$spwnclk$8 #b00111111)
(= |main::1::t1612!0@1$wclk$8| #b00000000)
(= |__CPROVER_dead_object#1$wclk$8| #b00000001)
(= |__CPROVER_deallocated#1$wclk$8| #b00000010)
(= |__CPROVER_malloc_is_new_array#1$wclk$8| #b00000011)
(= |__CPROVER_malloc_object#1$wclk$8| #b00000100)
(= |__CPROVER_malloc_size#1$wclk$8| #b00000101)
(= |__CPROVER_memory_leak#1$wclk$8| #b00000110)
(= |__CPROVER_next_thread_id#1$wclk$8| #b00000111)
(= |__CPROVER_pipe_count#1$wclk$8| #b00001000)
(= |main$tmp_guard0#1$wclk$8| #b00001101)
(= |main$tmp_guard1#1$wclk$8| #b00001110)
(= |x$read_delayed#1$wclk$8| #b00011010)
(= |x$read_delayed_var#1$wclk$8| #b00011011)
(= |main::1::t1611!0@1#1$wclk$8| #b00100100)
(= |__CPROVER_next_thread_id#2$wclk$8| #b00101001)
(= |main::1::t1611!0@1#2$wclk$8| #b00101010)
(= |main::1::t1612!0@1#1$wclk$8| #b00111100)
(= |__CPROVER_next_thread_id#3$rclk$8| #b00111101)
(= |__CPROVER_next_thread_id#5$wclk$8| #b00111101)
(= |main::1::t1612!0@1#2$wclk$8| #b00111110)
(= |main$tmp_guard0#2$wclk$8| #b10111001)
(= |main$tmp_guard0#3$rclk$8| #b10111010)
(= |x$r_buff0_thd0#2$rclk$8| #b10111011)
(= |main$tmp_guard1#3$rclk$8| #b11111000)
(= |main$tmp_guard1#4$wclk$8| #b11111000)
(= |main$tmp_guard1#5$rclk$8| #b11111010)
(= |main$tmp_guard1#6$rclk$8| #b11111100)
(= array_of.0 @fun_7)
(= |__CPROVER_threads_exited#2| @fun_5)
(= |__CPROVER_threads_exited#4| @fun_7)
(function @fun_7
 (type (Array (_ BitVec 32) (_ BitVec 1)))
 (= (@fun_7 #b00000000000000000000000000000000) #b0)
 (default #b1))
(function @fun_5
 (type (Array (_ BitVec 32) (_ BitVec 1)))
 (default #b1))

real	0m0.016s
user	0m0.013s
sys	0m0.003s
State: AC Run_time: 0.01852893829345703